\Problem name: compact

Minimize
OBJROW: C
Subject To
ord(0,1):  - x(0,1) + x(0,2) >= 7
ord(0,2):  x(0,0) - x(0,2) >= 7
ord(1,1):  x(1,0) - x(1,1) >= 4
ord(1,2):  - x(1,0) + x(1,2) >= 3
ord(2,1):  - x(2,1) + x(2,2) >= 7
ord(2,2):  x(2,0) - x(2,2) >= 6
triangle2(0,1,0):  y(0,1,0) + y(1,0,0) = 1
triangle2(0,1,1):  y(0,1,1) + y(1,0,1) = 1
triangle2(0,1,2):  y(0,1,2) + y(1,0,2) = 1
triangle2(0,2,0):  y(0,2,0) + y(2,0,0) = 1
triangle2(0,2,1):  y(0,2,1) + y(2,0,1) = 1
triangle2(0,2,2):  y(0,2,2) + y(2,0,2) = 1
triangle2(1,2,0):  y(1,2,0) + y(2,1,0) = 1
triangle2(1,2,1):  y(1,2,1) + y(2,1,1) = 1
triangle2(1,2,2):  y(1,2,2) + y(2,1,2) = 1
MCLinV(0,1,0):  - x(0,0) + v(0,1,0)p - v(0,1,0)n + x(1,0) = -3
MCLinV(1,0,0):  x(0,0) + v(1,0,0)p - v(1,0,0)n - x(1,0) = -1
MCLin1(0,1,0):  u(0,1,0)p - u(0,1,0)n >= 0
MCLin2(0,1,0):  23 y(1,0,0) + u(0,1,0)p - u(0,1,0)n >= 0
MCLin3(0,1,0):  -36 y(1,0,0) - v(0,1,0)p + v(0,1,0)n + u(0,1,0)p - u(0,1,0)n >= -36
MCLin4(0,1,0):  -36 y(1,0,0) + u(0,1,0)p - u(0,1,0)n <= 0
MCLin5(0,1,0):  23 y(1,0,0) - v(0,1,0)p + v(0,1,0)n + u(0,1,0)p - u(0,1,0)n <= 23
MCLin6(1,0,0):  u(1,0,0)p - u(1,0,0)n >= 0
MCLin7(1,0,0):  40 y(0,1,0) + u(1,0,0)p - u(1,0,0)n >= 0
MCLin8(1,0,0):  -19 y(0,1,0) - v(1,0,0)p + v(1,0,0)n + u(1,0,0)p - u(1,0,0)n >= -19
MCLin9(1,0,0):  -19 y(0,1,0) + u(1,0,0)p - u(1,0,0)n <= 0
MCLin10(1,0,0):  40 y(0,1,0) - v(1,0,0)p + v(1,0,0)n + u(1,0,0)p - u(1,0,0)n <= 40
MCLinV(0,1,1):  - x(0,1) + v(0,1,1)p - v(0,1,1)n + x(1,1) = -4
MCLinV(1,0,1):  x(0,1) + v(1,0,1)p - v(1,0,1)n - x(1,1) = -7
MCLin1(0,1,1):  u(0,1,1)p - u(0,1,1)n >= 0
MCLin2(0,1,1):  34 y(1,0,1) + u(0,1,1)p - u(0,1,1)n >= 0
MCLin3(0,1,1):  -25 y(1,0,1) - v(0,1,1)p + v(0,1,1)n + u(0,1,1)p - u(0,1,1)n >= -25
MCLin4(0,1,1):  -25 y(1,0,1) + u(0,1,1)p - u(0,1,1)n <= 0
MCLin5(0,1,1):  34 y(1,0,1) - v(0,1,1)p + v(0,1,1)n + u(0,1,1)p - u(0,1,1)n <= 34
MCLin6(1,0,1):  u(1,0,1)p - u(1,0,1)n >= 0
MCLin7(1,0,1):  36 y(0,1,1) + u(1,0,1)p - u(1,0,1)n >= 0
MCLin8(1,0,1):  -23 y(0,1,1) - v(1,0,1)p + v(1,0,1)n + u(1,0,1)p - u(1,0,1)n >= -23
MCLin9(1,0,1):  -23 y(0,1,1) + u(1,0,1)p - u(1,0,1)n <= 0
MCLin10(1,0,1):  36 y(0,1,1) - v(1,0,1)p + v(1,0,1)n + u(1,0,1)p - u(1,0,1)n <= 36
MCLinV(0,1,2):  - x(0,2) + v(0,1,2)p - v(0,1,2)n + x(1,2) = -7
MCLinV(1,0,2):  x(0,2) + v(1,0,2)p - v(1,0,2)n - x(1,2) = -7
MCLin1(0,1,2):  u(0,1,2)p - u(0,1,2)n >= 0
MCLin2(0,1,2):  37 y(1,0,2) + u(0,1,2)p - u(0,1,2)n >= 0
MCLin3(0,1,2):  -22 y(1,0,2) - v(0,1,2)p + v(0,1,2)n + u(0,1,2)p - u(0,1,2)n >= -22
MCLin4(0,1,2):  -22 y(1,0,2) + u(0,1,2)p - u(0,1,2)n <= 0
MCLin5(0,1,2):  37 y(1,0,2) - v(0,1,2)p + v(0,1,2)n + u(0,1,2)p - u(0,1,2)n <= 37
MCLin6(1,0,2):  u(1,0,2)p - u(1,0,2)n >= 0
MCLin7(1,0,2):  36 y(0,1,2) + u(1,0,2)p - u(1,0,2)n >= 0
MCLin8(1,0,2):  -23 y(0,1,2) - v(1,0,2)p + v(1,0,2)n + u(1,0,2)p - u(1,0,2)n >= -23
MCLin9(1,0,2):  -23 y(0,1,2) + u(1,0,2)p - u(1,0,2)n <= 0
MCLin10(1,0,2):  36 y(0,1,2) - v(1,0,2)p + v(1,0,2)n + u(1,0,2)p - u(1,0,2)n <= 36
MCLinV(0,2,0):  - x(0,0) + v(0,2,0)p - v(0,2,0)n + x(2,0) = -2
MCLinV(2,0,0):  x(0,0) + v(2,0,0)p - v(2,0,0)n - x(2,0) = -1
MCLin1(0,2,0):  u(0,2,0)p - u(0,2,0)n >= 0
MCLin2(0,2,0):  30 y(2,0,0) + u(0,2,0)p - u(0,2,0)n >= 0
MCLin3(0,2,0):  -28 y(2,0,0) - v(0,2,0)p + v(0,2,0)n + u(0,2,0)p - u(0,2,0)n >= -28
MCLin4(0,2,0):  -28 y(2,0,0) + u(0,2,0)p - u(0,2,0)n <= 0
MCLin5(0,2,0):  30 y(2,0,0) - v(0,2,0)p + v(0,2,0)n + u(0,2,0)p - u(0,2,0)n <= 30
MCLin6(2,0,0):  u(2,0,0)p - u(2,0,0)n >= 0
MCLin7(2,0,0):  31 y(0,2,0) + u(2,0,0)p - u(2,0,0)n >= 0
MCLin8(2,0,0):  -27 y(0,2,0) - v(2,0,0)p + v(2,0,0)n + u(2,0,0)p - u(2,0,0)n >= -27
MCLin9(2,0,0):  -27 y(0,2,0) + u(2,0,0)p - u(2,0,0)n <= 0
MCLin10(2,0,0):  31 y(0,2,0) - v(2,0,0)p + v(2,0,0)n + u(2,0,0)p - u(2,0,0)n <= 31
MCLinV(0,2,1):  - x(0,1) + v(0,2,1)p - v(0,2,1)n + x(2,1) = -7
MCLinV(2,0,1):  x(0,1) + v(2,0,1)p - v(2,0,1)n - x(2,1) = -7
MCLin1(0,2,1):  u(0,2,1)p - u(0,2,1)n >= 0
MCLin2(0,2,1):  36 y(2,0,1) + u(0,2,1)p - u(0,2,1)n >= 0
MCLin3(0,2,1):  -22 y(2,0,1) - v(0,2,1)p + v(0,2,1)n + u(0,2,1)p - u(0,2,1)n >= -22
MCLin4(0,2,1):  -22 y(2,0,1) + u(0,2,1)p - u(0,2,1)n <= 0
MCLin5(0,2,1):  36 y(2,0,1) - v(0,2,1)p + v(0,2,1)n + u(0,2,1)p - u(0,2,1)n <= 36
MCLin6(2,0,1):  u(2,0,1)p - u(2,0,1)n >= 0
MCLin7(2,0,1):  36 y(0,2,1) + u(2,0,1)p - u(2,0,1)n >= 0
MCLin8(2,0,1):  -22 y(0,2,1) - v(2,0,1)p + v(2,0,1)n + u(2,0,1)p - u(2,0,1)n >= -22
MCLin9(2,0,1):  -22 y(0,2,1) + u(2,0,1)p - u(2,0,1)n <= 0
MCLin10(2,0,1):  36 y(0,2,1) - v(2,0,1)p + v(2,0,1)n + u(2,0,1)p - u(2,0,1)n <= 36
MCLinV(0,2,2):  - x(0,2) + v(0,2,2)p - v(0,2,2)n + x(2,2) = -6
MCLinV(2,0,2):  x(0,2) + v(2,0,2)p - v(2,0,2)n - x(2,2) = -7
MCLin1(0,2,2):  u(0,2,2)p - u(0,2,2)n >= 0
MCLin2(0,2,2):  35 y(2,0,2) + u(0,2,2)p - u(0,2,2)n >= 0
MCLin3(0,2,2):  -23 y(2,0,2) - v(0,2,2)p + v(0,2,2)n + u(0,2,2)p - u(0,2,2)n >= -23
MCLin4(0,2,2):  -23 y(2,0,2) + u(0,2,2)p - u(0,2,2)n <= 0
MCLin5(0,2,2):  35 y(2,0,2) - v(0,2,2)p + v(0,2,2)n + u(0,2,2)p - u(0,2,2)n <= 35
MCLin6(2,0,2):  u(2,0,2)p - u(2,0,2)n >= 0
MCLin7(2,0,2):  36 y(0,2,2) + u(2,0,2)p - u(2,0,2)n >= 0
MCLin8(2,0,2):  -22 y(0,2,2) - v(2,0,2)p + v(2,0,2)n + u(2,0,2)p - u(2,0,2)n >= -22
MCLin9(2,0,2):  -22 y(0,2,2) + u(2,0,2)p - u(2,0,2)n <= 0
MCLin10(2,0,2):  36 y(0,2,2) - v(2,0,2)p + v(2,0,2)n + u(2,0,2)p - u(2,0,2)n <= 36
MCLinV(1,2,0):  - x(1,0) + v(1,2,0)p - v(1,2,0)n + x(2,0) = -2
MCLinV(2,1,0):  x(1,0) + v(2,1,0)p - v(2,1,0)n - x(2,0) = -3
MCLin1(1,2,0):  u(1,2,0)p - u(1,2,0)n >= 0
MCLin2(1,2,0):  40 y(2,1,0) + u(1,2,0)p - u(1,2,0)n >= 0
MCLin3(1,2,0):  -19 y(2,1,0) - v(1,2,0)p + v(1,2,0)n + u(1,2,0)p - u(1,2,0)n >= -19
MCLin4(1,2,0):  -19 y(2,1,0) + u(1,2,0)p - u(1,2,0)n <= 0
MCLin5(1,2,0):  40 y(2,1,0) - v(1,2,0)p + v(1,2,0)n + u(1,2,0)p - u(1,2,0)n <= 40
MCLin6(2,1,0):  u(2,1,0)p - u(2,1,0)n >= 0
MCLin7(2,1,0):  24 y(1,2,0) + u(2,1,0)p - u(2,1,0)n >= 0
MCLin8(2,1,0):  -35 y(1,2,0) - v(2,1,0)p + v(2,1,0)n + u(2,1,0)p - u(2,1,0)n >= -35
MCLin9(2,1,0):  -35 y(1,2,0) + u(2,1,0)p - u(2,1,0)n <= 0
MCLin10(2,1,0):  24 y(1,2,0) - v(2,1,0)p + v(2,1,0)n + u(2,1,0)p - u(2,1,0)n <= 24
MCLinV(1,2,1):  - x(1,1) + v(1,2,1)p - v(1,2,1)n + x(2,1) = -7
MCLinV(2,1,1):  x(1,1) + v(2,1,1)p - v(2,1,1)n - x(2,1) = -4
MCLin1(1,2,1):  u(1,2,1)p - u(1,2,1)n >= 0
MCLin2(1,2,1):  36 y(2,1,1) + u(1,2,1)p - u(1,2,1)n >= 0
MCLin3(1,2,1):  -23 y(2,1,1) - v(1,2,1)p + v(1,2,1)n + u(1,2,1)p - u(1,2,1)n >= -23
MCLin4(1,2,1):  -23 y(2,1,1) + u(1,2,1)p - u(1,2,1)n <= 0
MCLin5(1,2,1):  36 y(2,1,1) - v(1,2,1)p + v(1,2,1)n + u(1,2,1)p - u(1,2,1)n <= 36
MCLin6(2,1,1):  u(2,1,1)p - u(2,1,1)n >= 0
MCLin7(2,1,1):  34 y(1,2,1) + u(2,1,1)p - u(2,1,1)n >= 0
MCLin8(2,1,1):  -25 y(1,2,1) - v(2,1,1)p + v(2,1,1)n + u(2,1,1)p - u(2,1,1)n >= -25
MCLin9(2,1,1):  -25 y(1,2,1) + u(2,1,1)p - u(2,1,1)n <= 0
MCLin10(2,1,1):  34 y(1,2,1) - v(2,1,1)p + v(2,1,1)n + u(2,1,1)p - u(2,1,1)n <= 34
MCLinV(1,2,2):  - x(1,2) + v(1,2,2)p - v(1,2,2)n + x(2,2) = -6
MCLinV(2,1,2):  x(1,2) + v(2,1,2)p - v(2,1,2)n - x(2,2) = -7
MCLin1(1,2,2):  u(1,2,2)p - u(1,2,2)n >= 0
MCLin2(1,2,2):  35 y(2,1,2) + u(1,2,2)p - u(1,2,2)n >= 0
MCLin3(1,2,2):  -24 y(2,1,2) - v(1,2,2)p + v(1,2,2)n + u(1,2,2)p - u(1,2,2)n >= -24
MCLin4(1,2,2):  -24 y(2,1,2) + u(1,2,2)p - u(1,2,2)n <= 0
MCLin5(1,2,2):  35 y(2,1,2) - v(1,2,2)p + v(1,2,2)n + u(1,2,2)p - u(1,2,2)n <= 35
MCLin6(2,1,2):  u(2,1,2)p - u(2,1,2)n >= 0
MCLin7(2,1,2):  37 y(1,2,2) + u(2,1,2)p - u(2,1,2)n >= 0
MCLin8(2,1,2):  -22 y(1,2,2) - v(2,1,2)p + v(2,1,2)n + u(2,1,2)p - u(2,1,2)n >= -22
MCLin9(2,1,2):  -22 y(1,2,2) + u(2,1,2)p - u(2,1,2)n <= 0
MCLin10(2,1,2):  37 y(1,2,2) - v(2,1,2)p + v(2,1,2)n + u(2,1,2)p - u(2,1,2)n <= 37
makespan(0):  C - x(0,0) >= 1
makespan(1):  C - x(1,2) >= 7
makespan(2):  C - x(2,0) >= 2
cut_clique_1(0,0):  0.02849 x(0,0) + 0.10501 x(1,0) + 0.01281 x(2,0) >= 1
cut_clique_1(1,0):  0.02906 x(0,0) + 0.10501 x(1,0) + 0.01281 x(2,0) >= 1
cut_clique_1(2,0):  0.02906 x(0,0) + 0.10921 x(1,0) + 0.01140 x(2,0) >= 1
cut_clique_1(3,0):  0.02906 x(0,0) + 0.10812 x(1,0) + 0.01140 x(2,0) >= 1
cut_clique_1(4,0):  0.02678 x(0,0) + 0.11677 x(1,0) + 0.01103 x(2,0) >= 1
cut_clique_1(5,0):  0.02705 x(0,0) + 0.11677 x(1,0) + 0.01103 x(2,0) >= 1
cut_clique_1(6,0):  0.02759 x(0,0) + 0.11677 x(1,0) + 0.01103 x(2,0) >= 1
cut_clique_1(7,0):  0.02732 x(0,0) + 0.11794 x(1,0) + 0.01103 x(2,0) >= 1
cut_clique_1(8,0):  0.02732 x(0,0) + 0.11794 x(1,0) + 0.01015 x(2,0) >= 1
cut_clique_1(9,0):  0.02732 x(0,0) + 0.11676 x(1,0) + 0.01015 x(2,0) >= 1
cut_clique_1(10,0):  0.02732 x(0,0) + 0.11676 x(1,0) + 0.01005 x(2,0) >= 1
cut_clique_1(11,0):  0.03005 x(0,0) + 0.11511 x(1,0) + 0.00869 x(2,0) >= 1
cut_clique_1(12,0):  0.02957 x(0,0) + 0.11511 x(1,0) + 0.00965 x(2,0) >= 1
cut_clique_1(13,0):  0.02957 x(0,0) + 0.11511 x(1,0) + 0.00945 x(2,0) >= 1
cut_clique_1(14,0):  0.02957 x(0,0) + 0.11396 x(1,0) + 0.00945 x(2,0) >= 1
cut_clique_1(15,0):  0.02964 x(0,0) + 0.12357 x(1,0) + 0.00650 x(2,0) >= 1
cut_clique_1(16,0):  0.02964 x(0,0) + 0.12357 x(1,0) + 0.00643 x(2,0) >= 1
cut_clique_1(17,0):  0.02964 x(0,0) + 0.12357 x(1,0) + 0.00624 x(2,0) >= 1
cut_clique_1(18,0):  0.02964 x(0,0) + 0.12357 x(1,0) + 0.00612 x(2,0) >= 1
cut_clique_1(19,0):  0.02964 x(0,0) + 0.12357 x(1,0) + 0.00605 x(2,0) >= 1
cut_clique_1(20,0):  0.03083 x(0,0) + 0.12357 x(1,0) + 0.00557 x(2,0) >= 1
cut_clique_1(21,0):  0.03083 x(0,0) + 0.12357 x(1,0) + 0.00501 x(2,0) >= 1
cut_clique_1(22,0):  0.00495 x(0,0) + 0.01986 x(1,0) + 0.06516 x(2,0) >= 1
cut_clique_1(23,0):  0.00143 x(0,0) + 0.01233 x(1,0) + 0.07153 x(2,0) >= 1
cut_clique_1(24,0):  0.00142 x(0,0) + 0.01233 x(1,0) + 0.07153 x(2,0) >= 1
cut_clique_1(25,0):  0.00141 x(0,0) + 0.01233 x(1,0) + 0.07153 x(2,0) >= 1
cut_clique_1(26,0):  0.00145 x(0,0) + 0.01233 x(1,0) + 0.07153 x(2,0) >= 1
cut_clique_1(27,0):  0.00023 x(0,0) + 0.00813 x(1,0) + 0.07416 x(2,0) >= 1
cut_clique_1(28,0):  0.00022 x(0,0) + 0.00813 x(1,0) + 0.07416 x(2,0) >= 1
cut_clique_1(0,1):  0.95630 x(0,1) + 0.99526 x(1,1) + 0.97058 x(2,1) >= 1
cut_clique_1(1,1):  0.96584 x(0,1) + 0.98094 x(1,1) + 0.97163 x(2,1) >= 1
cut_clique_1(2,1):  0.98242 x(0,1) + 0.99884 x(1,1) + 0.95340 x(2,1) >= 1
cut_clique_1(3,1):  0.98181 x(0,1) + 0.98343 x(1,1) + 0.98920 x(2,1) >= 1
cut_clique_1(4,1):  0.98322 x(0,1) + 0.98055 x(1,1) + 0.98172 x(2,1) >= 1
cut_clique_1(5,1):  0.99007 x(0,1) + 0.99809 x(1,1) + 0.98485 x(2,1) >= 1
cut_clique_1(6,1):  0.99881 x(0,1) + 0.95513 x(1,1) + 0.98177 x(2,1) >= 1
cut_clique_1(7,1):  0.96642 x(0,1) + 0.98711 x(1,1) + 0.98574 x(2,1) >= 1
cut_clique_1(8,1):  0.99881 x(0,1) + 0.98378 x(1,1) + 0.98177 x(2,1) >= 1
cut_clique_1(9,1):  0.99297 x(0,1) + 0.94419 x(1,1) + 0.98617 x(2,1) >= 1
cut_clique_1(10,1):  0.99636 x(0,1) + 0.99753 x(1,1) + 0.92907 x(2,1) >= 1
cut_clique_1(11,1):  0.99580 x(0,1) + 0.99753 x(1,1) + 0.92907 x(2,1) >= 1
cut_clique_1(12,1):  0.99513 x(0,1) + 0.99438 x(1,1) + 0.94067 x(2,1) >= 1
cut_clique_1(13,1):  0.97589 x(0,1) + 0.99753 x(1,1) + 0.94765 x(2,1) >= 1
cut_clique_1(14,1):  0.99513 x(0,1) + 0.98453 x(1,1) + 0.94067 x(2,1) >= 1
cut_clique_1(15,1):  0.97996 x(0,1) + 0.99655 x(1,1) + 0.94329 x(2,1) >= 1
cut_clique_1(16,1):  0.96712 x(0,1) + 0.97701 x(1,1) + 0.98687 x(2,1) >= 1
cut_clique_1(17,1):  0.97720 x(0,1) + 0.98862 x(1,1) + 0.95270 x(2,1) >= 1
cut_clique_1(18,1):  0.99007 x(0,1) + 0.98567 x(1,1) + 0.98485 x(2,1) >= 1
cut_clique_1(19,1):  0.99600 x(0,1) + 0.93908 x(1,1) + 0.99689 x(2,1) >= 1
cut_clique_1(20,1):  0.99360 x(0,1) + 0.96540 x(1,1) + 0.97435 x(2,1) >= 1
cut_clique_1(21,1):  0.98432 x(0,1) + 0.96880 x(1,1) + 0.99781 x(2,1) >= 1
cut_clique_1(22,1):  0.97373 x(0,1) + 0.98471 x(1,1) + 0.97435 x(2,1) >= 1
cut_clique_1(23,1):  0.98432 x(0,1) + 0.96880 x(1,1) + 0.99731 x(2,1) >= 1
cut_clique_1(24,1):  0.98181 x(0,1) + 0.98343 x(1,1) + 0.96980 x(2,1) >= 1
cut_clique_1(25,1):  0.97720 x(0,1) + 0.97873 x(1,1) + 0.99081 x(2,1) >= 1
cut_clique_1(26,1):  0.98078 x(0,1) + 0.98756 x(1,1) + 0.99786 x(2,1) >= 1
cut_clique_1(27,1):  0.98479 x(0,1) + 0.96950 x(1,1) + 0.97781 x(2,1) >= 1
cut_clique_1(28,1):  0.99007 x(0,1) + 0.98567 x(1,1) + 0.95372 x(2,1) >= 1
cut_clique_1(29,1):  0.93416 x(0,1) + 0.99985 x(1,1) + 0.98999 x(2,1) >= 1
cut_clique_1(30,1):  0.98791 x(0,1) + 0.96797 x(1,1) + 0.95936 x(2,1) >= 1
cut_clique_1(31,1):  0.99881 x(0,1) + 0.95427 x(1,1) + 0.98177 x(2,1) >= 1
cut_clique_1(32,1):  0.99910 x(0,1) + 0.95244 x(1,1) + 0.96826 x(2,1) >= 1
cut_clique_1(33,1):  0.96759 x(0,1) + 0.99429 x(1,1) + 0.96663 x(2,1) >= 1
cut_clique_1(34,1):  0.99929 x(0,1) + 0.97731 x(1,1) + 0.98338 x(2,1) >= 1
cut_clique_1(35,1):  0.97906 x(0,1) + 0.97992 x(1,1) + 0.95917 x(2,1) >= 1
cut_clique_1(36,1):  0.95391 x(0,1) + 0.99809 x(1,1) + 0.96651 x(2,1) >= 1
cut_clique_1(37,1):  0.97720 x(0,1) + 0.99830 x(1,1) + 0.99081 x(2,1) >= 1
cut_clique_1(38,1):  0.98181 x(0,1) + 0.98343 x(1,1) + 0.99494 x(2,1) >= 1
cut_clique_1(39,1):  0.99058 x(0,1) + 0.98756 x(1,1) + 0.99786 x(2,1) >= 1
cut_clique_1(40,1):  0.99527 x(0,1) + 0.96880 x(1,1) + 0.99731 x(2,1) >= 1
cut_clique_1(41,1):  0.97679 x(0,1) + 0.97701 x(1,1) + 0.98687 x(2,1) >= 1
cut_clique_1(42,1):  0.99360 x(0,1) + 0.98471 x(1,1) + 0.97435 x(2,1) >= 1
cut_clique_1(43,1):  0.99527 x(0,1) + 0.92267 x(1,1) + 0.99731 x(2,1) >= 1
cut_clique_1(44,1):  0.98514 x(0,1) + 0.96898 x(1,1) + 0.96980 x(2,1) >= 1
cut_clique_1(45,1):  0.98479 x(0,1) + 0.99949 x(1,1) + 0.97781 x(2,1) >= 1
cut_clique_1(46,1):  0.96219 x(0,1) + 0.96430 x(1,1) + 0.98999 x(2,1) >= 1
cut_clique_1(47,1):  0.98322 x(0,1) + 0.98055 x(1,1) + 0.98270 x(2,1) >= 1
cut_clique_1(48,1):  0.99007 x(0,1) + 0.98567 x(1,1) + 0.94428 x(2,1) >= 1
cut_clique_1(49,1):  0.95555 x(0,1) + 0.99456 x(1,1) + 0.97834 x(2,1) >= 1
cut_clique_1(0,2):  0.01598 x(0,2) + 0.02735 x(1,2) + 0.05232 x(2,2) >= 1
cut_clique_1(1,2):  0.02072 x(0,2) + 0.02197 x(1,2) + 0.05294 x(2,2) >= 1
cut_clique_1(2,2):  0.01992 x(0,2) + 0.02073 x(1,2) + 0.05294 x(2,2) >= 1
cut_clique_1(3,2):  0.01791 x(0,2) + 0.02442 x(1,2) + 0.05249 x(2,2) >= 1
cut_clique_1(4,2):  0.01932 x(0,2) + 0.01868 x(1,2) + 0.05787 x(2,2) >= 1
cut_clique_1(5,2):  0.01958 x(0,2) + 0.02405 x(1,2) + 0.04848 x(2,2) >= 1
cut_clique_1(6,2):  0.01674 x(0,2) + 0.02555 x(1,2) + 0.04795 x(2,2) >= 1
cut_clique_1(7,2):  0.01489 x(0,2) + 0.02791 x(1,2) + 0.04892 x(2,2) >= 1
cut_clique_1(8,2):  0.01489 x(0,2) + 0.02791 x(1,2) + 0.05010 x(2,2) >= 1
cut_clique_1(9,2):  0.01737 x(0,2) + 0.02791 x(1,2) + 0.04892 x(2,2) >= 1
cut_clique_1(10,2):  0.01737 x(0,2) + 0.02791 x(1,2) + 0.04550 x(2,2) >= 1
cut_clique_1(11,2):  0.01593 x(0,2) + 0.02791 x(1,2) + 0.04892 x(2,2) >= 1
cut_clique_1(12,2):  0.02345 x(0,2) + 0.01805 x(1,2) + 0.04809 x(2,2) >= 1
cut_clique_1(13,2):  0.01897 x(0,2) + 0.02438 x(1,2) + 0.05041 x(2,2) >= 1
cut_clique_1(14,2):  0.02116 x(0,2) + 0.02306 x(1,2) + 0.04658 x(2,2) >= 1
cut_clique_1(15,2):  0.01890 x(0,2) + 0.02413 x(1,2) + 0.04570 x(2,2) >= 1
cut_clique_1(16,2):  0.01890 x(0,2) + 0.02558 x(1,2) + 0.04453 x(2,2) >= 1
cut_clique_1(17,2):  0.01897 x(0,2) + 0.02622 x(1,2) + 0.05041 x(2,2) >= 1
cut_clique_1(18,2):  0.02030 x(0,2) + 0.02263 x(1,2) + 0.05294 x(2,2) >= 1
cut_clique_1(19,2):  0.01890 x(0,2) + 0.02814 x(1,2) + 0.04720 x(2,2) >= 1
cut_clique_1(20,2):  0.01780 x(0,2) + 0.02480 x(1,2) + 0.04809 x(2,2) >= 1
cut_clique_1(21,2):  0.01489 x(0,2) + 0.02791 x(1,2) + 0.05201 x(2,2) >= 1
cut_clique_1(22,2):  0.01992 x(0,2) + 0.02197 x(1,2) + 0.05294 x(2,2) >= 1
cut_clique_1(23,2):  0.01674 x(0,2) + 0.02555 x(1,2) + 0.05047 x(2,2) >= 1
cut_clique_1(24,2):  0.02695 x(0,2) + 0.01861 x(1,2) + 0.04858 x(2,2) >= 1
cut_clique_1(25,2):  0.01958 x(0,2) + 0.02480 x(1,2) + 0.04087 x(2,2) >= 1
cut_clique_1(26,2):  0.02095 x(0,2) + 0.02076 x(1,2) + 0.04658 x(2,2) >= 1
cut_clique_1(27,2):  0.01958 x(0,2) + 0.02405 x(1,2) + 0.04660 x(2,2) >= 1
cut_clique_1(28,2):  0.01489 x(0,2) + 0.02791 x(1,2) + 0.05260 x(2,2) >= 1
cut_clique_1(29,2):  0.01890 x(0,2) + 0.02558 x(1,2) + 0.04720 x(2,2) >= 1
cut_clique_1(30,2):  0.02448 x(0,2) + 0.02306 x(1,2) + 0.04658 x(2,2) >= 1
cut_clique_1(31,2):  0.01835 x(0,2) + 0.02480 x(1,2) + 0.04809 x(2,2) >= 1
cut_clique_1(32,2):  0.02345 x(0,2) + 0.01861 x(1,2) + 0.04858 x(2,2) >= 1
cut_clique_1(33,2):  0.01598 x(0,2) + 0.02791 x(1,2) + 0.04550 x(2,2) >= 1
cut_clique_1(34,2):  0.02345 x(0,2) + 0.01805 x(1,2) + 0.04858 x(2,2) >= 1
cut_clique_1(35,2):  0.01598 x(0,2) + 0.02791 x(1,2) + 0.05232 x(2,2) >= 1
cut_clique_1(36,2):  0.01958 x(0,2) + 0.02480 x(1,2) + 0.04809 x(2,2) >= 1
cut_clique_1(37,2):  0.01871 x(0,2) + 0.02413 x(1,2) + 0.04570 x(2,2) >= 1
cut_clique_1(38,2):  0.01897 x(0,2) + 0.02622 x(1,2) + 0.04848 x(2,2) >= 1
cut_clique_1(39,2):  0.01992 x(0,2) + 0.02438 x(1,2) + 0.05041 x(2,2) >= 1
cut_clique_1(40,2):  0.01674 x(0,2) + 0.02808 x(1,2) + 0.05047 x(2,2) >= 1
cut_clique_1(41,2):  0.01860 x(0,2) + 0.02405 x(1,2) + 0.04848 x(2,2) >= 1
cut_clique_1(42,2):  0.01756 x(0,2) + 0.02442 x(1,2) + 0.05249 x(2,2) >= 1
cut_clique_1(43,2):  0.02095 x(0,2) + 0.02306 x(1,2) + 0.04658 x(2,2) >= 1
cut_clique_1(44,2):  0.01860 x(0,2) + 0.02622 x(1,2) + 0.04848 x(2,2) >= 1
cut_clique_1(45,2):  0.02032 x(0,2) + 0.02076 x(1,2) + 0.04658 x(2,2) >= 1
cut_clique_1(46,2):  0.01890 x(0,2) + 0.02413 x(1,2) + 0.04453 x(2,2) >= 1
cut_clique_1(47,2):  0.01890 x(0,2) + 0.02758 x(1,2) + 0.04720 x(2,2) >= 1
cut_clique_1(48,2):  0.01958 x(0,2) + 0.02405 x(1,2) + 0.04706 x(2,2) >= 1
cut_clique_1(49,2):  0.02227 x(0,2) + 0.02306 x(1,2) + 0.04658 x(2,2) >= 1
cut_clique_2(0,1):  0.71362 x(1,1) + 0.86938 x(2,1) >= 1
cut_clique_2(1,1):  0.65112 x(1,1) + 0.94653 x(2,1) >= 1
cut_clique_2(2,1):  0.88814 x(1,1) + 0.82046 x(2,1) >= 1
cut_clique_2(3,1):  0.77229 x(1,1) + 0.82046 x(2,1) >= 1
cut_clique_2(4,1):  0.69789 x(1,1) + 0.93969 x(2,1) >= 1
cut_clique_2(5,1):  0.81208 x(1,1) + 0.86287 x(2,1) >= 1
cut_clique_2(6,1):  0.88814 x(1,1) + 0.70368 x(2,1) >= 1
cut_clique_2(7,1):  0.88910 x(1,1) + 0.92939 x(2,1) >= 1
cut_clique_2(8,1):  0.90590 x(1,1) + 0.87439 x(2,1) >= 1
cut_clique_2(9,1):  0.77619 x(1,1) + 0.91080 x(2,1) >= 1
cut_clique_2(10,1):  0.68304 x(1,1) + 0.91080 x(2,1) >= 1
cut_clique_2(11,1):  0.95345 x(1,1) + 0.82046 x(2,1) >= 1
cut_clique_2(12,1):  0.66441 x(1,1) + 0.94653 x(2,1) >= 1
cut_clique_2(13,1):  0.82020 x(1,1) + 0.86287 x(2,1) >= 1
cut_clique_2(14,1):  0.83660 x(1,1) + 0.96642 x(2,1) >= 1
cut_clique_2(15,1):  0.81987 x(1,1) + 0.87132 x(2,1) >= 1
cut_clique_2(16,1):  0.89684 x(1,1) + 0.87439 x(2,1) >= 1
cut_clique_2(17,1):  0.75501 x(1,1) + 0.94543 x(2,1) >= 1
cut_clique_2(18,1):  0.80019 x(1,1) + 0.91080 x(2,1) >= 1
cut_clique_2(19,1):  0.79560 x(1,1) + 0.82046 x(2,1) >= 1
cut_clique_2(20,1):  0.67495 x(1,1) + 0.94918 x(2,1) >= 1
cut_clique_2(21,1):  0.72435 x(1,1) + 0.87132 x(2,1) >= 1
cut_clique_2(22,1):  0.88910 x(1,1) + 0.91080 x(2,1) >= 1
cut_clique_2(23,1):  0.79655 x(1,1) + 0.86287 x(2,1) >= 1
cut_clique_2(24,1):  0.66441 x(1,1) + 0.94543 x(2,1) >= 1
cut_clique_2(25,1):  0.86321 x(1,1) + 0.90232 x(2,1) >= 1
cut_clique_2(26,1):  0.88814 x(1,1) + 0.73645 x(2,1) >= 1
cut_clique_2(27,1):  0.83660 x(1,1) + 0.94709 x(2,1) >= 1
cut_clique_2(28,1):  0.89107 x(1,1) + 0.82046 x(2,1) >= 1
cut_clique_2(29,1):  0.79655 x(1,1) + 0.82969 x(2,1) >= 1
cut_clique_2(30,1):  0.85810 x(1,1) + 0.82046 x(2,1) >= 1
cut_clique_2(31,1):  0.87620 x(1,1) + 0.72780 x(2,1) >= 1
cut_clique_2(32,1):  0.88814 x(1,1) + 0.77327 x(2,1) >= 1
cut_clique_2(33,1):  0.75501 x(1,1) + 0.86938 x(2,1) >= 1
cut_clique_2(34,1):  0.76089 x(1,1) + 0.85423 x(2,1) >= 1
cut_clique_2(35,1):  0.86097 x(1,1) + 0.74323 x(2,1) >= 1
cut_clique_2(36,1):  0.82865 x(1,1) + 0.86287 x(2,1) >= 1
cut_clique_2(37,1):  0.76248 x(1,1) + 0.87132 x(2,1) >= 1
cut_clique_2(38,1):  0.80451 x(1,1) + 0.86287 x(2,1) >= 1
cut_clique_2(39,1):  0.75501 x(1,1) + 0.88677 x(2,1) >= 1
cut_clique_2(40,1):  0.88910 x(1,1) + 0.90232 x(2,1) >= 1
cut_clique_2(41,1):  0.67495 x(1,1) + 0.93969 x(2,1) >= 1
cut_clique_2(42,1):  0.88814 x(1,1) + 0.80219 x(2,1) >= 1
cut_clique_2(43,1):  0.88814 x(1,1) + 0.72201 x(2,1) >= 1
cut_clique_2(44,1):  0.81987 x(1,1) + 0.94709 x(2,1) >= 1
cut_clique_2(45,1):  0.82020 x(1,1) + 0.96642 x(2,1) >= 1
cut_clique_2(46,1):  0.88814 x(1,1) + 0.87439 x(2,1) >= 1
cut_clique_2(47,1):  0.66441 x(1,1) + 0.97380 x(2,1) >= 1
cut_clique_2(48,1):  0.75501 x(1,1) + 0.83667 x(2,1) >= 1
cut_clique_2(49,1):  0.89684 x(1,1) + 0.74323 x(2,1) >= 1
cut_clique_3(0,1):  0.95933 x(0,1) + 0.98301 x(1,1) >= 1
cut_clique_3(1,1):  0.92478 x(0,1) + 0.92866 x(1,1) >= 1
cut_clique_3(2,1):  0.98652 x(0,1) + 0.93709 x(1,1) >= 1
cut_clique_3(3,1):  0.96050 x(0,1) + 0.94674 x(1,1) >= 1
cut_clique_3(4,1):  0.96050 x(0,1) + 0.86937 x(1,1) >= 1
cut_clique_3(5,1):  0.93687 x(0,1) + 0.91456 x(1,1) >= 1
cut_clique_3(6,1):  0.98653 x(0,1) + 0.93709 x(1,1) >= 1
cut_clique_3(7,1):  0.98653 x(0,1) + 0.84744 x(1,1) >= 1
cut_clique_3(8,1):  0.98337 x(0,1) + 0.93709 x(1,1) >= 1
cut_clique_3(9,1):  0.97851 x(0,1) + 0.98301 x(1,1) >= 1
cut_clique_3(10,1):  0.99541 x(0,1) + 0.95299 x(1,1) >= 1
cut_clique_3(11,1):  0.98978 x(0,1) + 0.89967 x(1,1) >= 1
cut_clique_3(12,1):  0.88827 x(0,1) + 0.95009 x(1,1) >= 1
cut_clique_3(13,1):  0.95933 x(0,1) + 0.86884 x(1,1) >= 1
cut_clique_3(14,1):  0.91527 x(0,1) + 0.95028 x(1,1) >= 1
cut_clique_3(15,1):  0.96050 x(0,1) + 0.95630 x(1,1) >= 1
cut_clique_3(16,1):  0.90931 x(0,1) + 0.98196 x(1,1) >= 1
cut_clique_3(17,1):  0.96584 x(0,1) + 0.86214 x(1,1) >= 1
cut_clique_3(18,1):  0.96050 x(0,1) + 0.93727 x(1,1) >= 1
cut_clique_3(19,1):  0.99541 x(0,1) + 0.93430 x(1,1) >= 1
cut_clique_3(20,1):  0.94916 x(0,1) + 0.91473 x(1,1) >= 1
cut_clique_3(21,1):  0.93770 x(0,1) + 0.89075 x(1,1) >= 1
cut_clique_3(22,1):  0.91527 x(0,1) + 0.97967 x(1,1) >= 1
cut_clique_3(23,1):  0.92478 x(0,1) + 0.94945 x(1,1) >= 1
cut_clique_3(24,1):  0.95687 x(0,1) + 0.95777 x(1,1) >= 1
cut_clique_3(25,1):  0.99276 x(0,1) + 0.90058 x(1,1) >= 1
cut_clique_3(26,1):  0.88802 x(0,1) + 0.97972 x(1,1) >= 1
cut_clique_3(27,1):  0.93029 x(0,1) + 0.93430 x(1,1) >= 1
cut_clique_3(28,1):  0.94201 x(0,1) + 0.91114 x(1,1) >= 1
cut_clique_3(29,1):  0.90895 x(0,1) + 0.92265 x(1,1) >= 1
cut_clique_3(30,1):  0.93770 x(0,1) + 0.91747 x(1,1) >= 1
cut_clique_3(31,1):  0.96050 x(0,1) + 0.90915 x(1,1) >= 1
cut_clique_3(32,1):  0.92750 x(0,1) + 0.92265 x(1,1) >= 1
cut_clique_3(33,1):  0.97775 x(0,1) + 0.87675 x(1,1) >= 1
cut_clique_3(34,1):  0.93770 x(0,1) + 0.94761 x(1,1) >= 1
cut_clique_3(35,1):  0.92478 x(0,1) + 0.90424 x(1,1) >= 1
cut_clique_3(36,1):  0.95933 x(0,1) + 0.93834 x(1,1) >= 1
cut_clique_3(37,1):  0.93687 x(0,1) + 0.93285 x(1,1) >= 1
cut_clique_3(38,1):  0.88802 x(0,1) + 0.98962 x(1,1) >= 1
cut_clique_3(39,1):  0.89675 x(0,1) + 0.93430 x(1,1) >= 1
cut_clique_3(40,1):  0.92354 x(0,1) + 0.91114 x(1,1) >= 1
cut_clique_3(41,1):  0.91379 x(0,1) + 0.95299 x(1,1) >= 1
cut_clique_3(42,1):  0.98653 x(0,1) + 0.87854 x(1,1) >= 1
cut_clique_3(43,1):  0.98653 x(0,1) + 0.93125 x(1,1) >= 1
cut_clique_3(44,1):  0.87786 x(0,1) + 0.95777 x(1,1) >= 1
cut_clique_3(45,1):  0.95439 x(0,1) + 0.92265 x(1,1) >= 1
cut_clique_3(46,1):  0.99930 x(0,1) + 0.86641 x(1,1) >= 1
cut_clique_3(47,1):  0.95933 x(0,1) + 0.91019 x(1,1) >= 1
cut_clique_3(48,1):  0.90931 x(0,1) + 0.92265 x(1,1) >= 1
cut_clique_3(49,1):  0.90070 x(0,1) + 0.96373 x(1,1) >= 1
cut_clique_3(0,2):  0.01744 x(0,2) + 0.03667 x(1,2) + 0.02828 x(2,2) >= 1
cut_clique_4(0,1):  0.06060 x(0,1) + 0.89922 x(1,1) + 0.08357 x(2,1) >= 1
cut_clique_4(1,1):  0.04238 x(0,1) + 0.10716 x(1,1) + 0.13455 x(2,1) >= 1
cut_clique_4(2,1):  0.06060 x(0,1) + 0.70042 x(1,1) + 0.08357 x(2,1) >= 1
cut_clique_4(3,1):  0.04898 x(0,1) + 0.09451 x(1,1) + 0.11626 x(2,1) >= 1
cut_clique_4(4,1):  0.04238 x(0,1) + 0.09923 x(1,1) + 0.13455 x(2,1) >= 1
cut_clique_4(5,1):  0.06060 x(0,1) + 0.68620 x(1,1) + 0.08357 x(2,1) >= 1
cut_clique_4(6,1):  0.04949 x(0,1) + 0.07815 x(1,1) + 0.11425 x(2,1) >= 1
cut_clique_4(7,1):  0.04464 x(0,1) + 0.08633 x(1,1) + 0.12728 x(2,1) >= 1
cut_clique_4(8,1):  0.06085 x(0,1) + 0.15979 x(1,1) + 0.08290 x(2,1) >= 1
cut_clique_4(9,1):  0.06060 x(0,1) + 0.62801 x(1,1) + 0.08357 x(2,1) >= 1
cut_clique_4(10,1):  0.06085 x(0,1) + 0.15821 x(1,1) + 0.08290 x(2,1) >= 1
cut_clique_4(11,1):  0.04949 x(0,1) + 0.06555 x(1,1) + 0.11425 x(2,1) >= 1
cut_clique_4(12,1):  0.04898 x(0,1) + 0.08174 x(1,1) + 0.11626 x(2,1) >= 1
cut_clique_4(13,1):  0.06060 x(0,1) + 0.86053 x(1,1) + 0.08357 x(2,1) >= 1
cut_clique_4(14,1):  0.06060 x(0,1) + 0.79678 x(1,1) + 0.08357 x(2,1) >= 1
cut_clique_4(15,1):  0.06060 x(0,1) + 0.94615 x(1,1) + 0.08357 x(2,1) >= 1
cut_clique_4(16,1):  0.06060 x(0,1) + 0.95317 x(1,1) + 0.08357 x(2,1) >= 1
cut_clique_4(17,1):  0.06060 x(0,1) + 0.73728 x(1,1) + 0.08357 x(2,1) >= 1
cut_clique_4(18,1):  0.06060 x(0,1) + 0.53607 x(1,1) + 0.08357 x(2,1) >= 1
cut_clique_4(19,1):  0.06060 x(0,1) + 0.54743 x(1,1) + 0.08357 x(2,1) >= 1
cut_clique_4(20,1):  0.06060 x(0,1) + 0.49318 x(1,1) + 0.08357 x(2,1) >= 1
cut_clique_4(21,1):  0.04898 x(0,1) + 0.08790 x(1,1) + 0.11626 x(2,1) >= 1
cut_clique_4(22,1):  0.06085 x(0,1) + 0.18546 x(1,1) + 0.08290 x(2,1) >= 1
cut_clique_4(23,1):  0.06060 x(0,1) + 0.67940 x(1,1) + 0.08357 x(2,1) >= 1
cut_clique_4(24,1):  0.04464 x(0,1) + 0.11574 x(1,1) + 0.12774 x(2,1) >= 1
cut_clique_4(25,1):  0.04464 x(0,1) + 0.12731 x(1,1) + 0.12774 x(2,1) >= 1
cut_clique_4(26,1):  0.06060 x(0,1) + 0.93669 x(1,1) + 0.08357 x(2,1) >= 1
cut_clique_4(27,1):  0.06085 x(0,1) + 0.17476 x(1,1) + 0.08290 x(2,1) >= 1
cut_clique_4(28,1):  0.04464 x(0,1) + 0.11458 x(1,1) + 0.12774 x(2,1) >= 1
cut_clique_4(29,1):  0.04238 x(0,1) + 0.10349 x(1,1) + 0.13455 x(2,1) >= 1
cut_clique_4(30,1):  0.06085 x(0,1) + 0.15981 x(1,1) + 0.08290 x(2,1) >= 1
cut_clique_4(31,1):  0.06060 x(0,1) + 0.81020 x(1,1) + 0.08357 x(2,1) >= 1
cut_clique_4(32,1):  0.06060 x(0,1) + 0.71718 x(1,1) + 0.08357 x(2,1) >= 1
cut_clique_4(33,1):  0.06060 x(0,1) + 0.72435 x(1,1) + 0.08357 x(2,1) >= 1
cut_clique_4(34,1):  0.06085 x(0,1) + 0.18182 x(1,1) + 0.08290 x(2,1) >= 1
cut_clique_4(35,1):  0.04898 x(0,1) + 0.08910 x(1,1) + 0.11626 x(2,1) >= 1
cut_clique_4(36,1):  0.06060 x(0,1) + 0.77528 x(1,1) + 0.08357 x(2,1) >= 1
cut_clique_4(37,1):  0.06060 x(0,1) + 0.60385 x(1,1) + 0.08357 x(2,1) >= 1
cut_clique_4(38,1):  0.04949 x(0,1) + 0.09078 x(1,1) + 0.11425 x(2,1) >= 1
cut_clique_4(39,1):  0.06060 x(0,1) + 0.83471 x(1,1) + 0.08357 x(2,1) >= 1
cut_clique_4(40,1):  0.06060 x(0,1) + 0.90149 x(1,1) + 0.08357 x(2,1) >= 1
cut_clique_4(41,1):  0.04949 x(0,1) + 0.08074 x(1,1) + 0.11425 x(2,1) >= 1
cut_clique_4(42,1):  0.06085 x(0,1) + 0.17653 x(1,1) + 0.08290 x(2,1) >= 1
cut_clique_4(43,1):  0.04949 x(0,1) + 0.08988 x(1,1) + 0.11425 x(2,1) >= 1
cut_clique_4(44,1):  0.04949 x(0,1) + 0.07105 x(1,1) + 0.11425 x(2,1) >= 1
cut_clique_4(45,1):  0.04949 x(0,1) + 0.07407 x(1,1) + 0.11425 x(2,1) >= 1
cut_clique_4(46,1):  0.06060 x(0,1) + 0.83730 x(1,1) + 0.08357 x(2,1) >= 1
cut_clique_4(47,1):  0.04238 x(0,1) + 0.09728 x(1,1) + 0.13455 x(2,1) >= 1
cut_clique_4(48,1):  0.06085 x(0,1) + 0.19398 x(1,1) + 0.08290 x(2,1) >= 1
cut_clique_4(49,1):  0.06060 x(0,1) + 0.60917 x(1,1) + 0.08357 x(2,1) >= 1
Bounds
 0 <= C <= 44
 14 <= x(0,0) <= 43
 0 <= y(0,1,0) <= 1
 0 <= y(1,0,0) <= 1
 0 <= v(0,1,0)p <= 36
 0 <= v(0,1,0)n <= 23
 0 <= v(1,0,0)p <= 19
 0 <= v(1,0,0)n <= 40
 0 <= u(0,1,0)p <= 440
 0 <= u(0,1,0)n <= 440
 0 <= u(1,0,0)p <= 440
 0 <= u(1,0,0)n <= 440
 0 <= y(0,2,0) <= 1
 0 <= y(2,0,0) <= 1
 0 <= v(0,2,0)p <= 28
 0 <= v(0,2,0)n <= 30
 0 <= v(2,0,0)p <= 27
 0 <= v(2,0,0)n <= 31
 0 <= u(0,2,0)p <= 440
 0 <= u(0,2,0)n <= 440
 0 <= u(2,0,0)p <= 440
 0 <= u(2,0,0)n <= 440
 4 <= x(1,0) <= 34
 0 <= y(1,2,0) <= 1
 0 <= y(2,1,0) <= 1
 0 <= v(1,2,0)p <= 19
 0 <= v(1,2,0)n <= 40
 0 <= v(2,1,0)p <= 35
 0 <= v(2,1,0)n <= 24
 0 <= u(1,2,0)p <= 440
 0 <= u(1,2,0)n <= 440
 0 <= u(2,1,0)p <= 440
 0 <= u(2,1,0)n <= 440
 13 <= x(2,0) <= 42
 0 <= x(0,1) <= 29
 0 <= y(0,1,1) <= 1
 0 <= y(1,0,1) <= 1
 0 <= v(0,1,1)p <= 25
 0 <= v(0,1,1)n <= 34
 0 <= v(1,0,1)p <= 23
 0 <= v(1,0,1)n <= 36
 0 <= u(0,1,1)p <= 440
 0 <= u(0,1,1)n <= 440
 0 <= u(1,0,1)p <= 440
 0 <= u(1,0,1)n <= 440
 0 <= y(0,2,1) <= 1
 0 <= y(2,0,1) <= 1
 0 <= v(0,2,1)p <= 22
 0 <= v(0,2,1)n <= 36
 0 <= v(2,0,1)p <= 22
 0 <= v(2,0,1)n <= 36
 0 <= u(0,2,1)p <= 440
 0 <= u(0,2,1)n <= 440
 0 <= u(2,0,1)p <= 440
 0 <= u(2,0,1)n <= 440
 0 <= x(1,1) <= 30
 0 <= y(1,2,1) <= 1
 0 <= y(2,1,1) <= 1
 0 <= v(1,2,1)p <= 23
 0 <= v(1,2,1)n <= 36
 0 <= v(2,1,1)p <= 25
 0 <= v(2,1,1)n <= 34
 0 <= u(1,2,1)p <= 440
 0 <= u(1,2,1)n <= 440
 0 <= u(2,1,1)p <= 440
 0 <= u(2,1,1)n <= 440
 0 <= x(2,1) <= 29
 7 <= x(0,2) <= 36
 0 <= y(0,1,2) <= 1
 0 <= y(1,0,2) <= 1
 0 <= v(0,1,2)p <= 22
 0 <= v(0,1,2)n <= 37
 0 <= v(1,0,2)p <= 23
 0 <= v(1,0,2)n <= 36
 0 <= u(0,1,2)p <= 440
 0 <= u(0,1,2)n <= 440
 0 <= u(1,0,2)p <= 440
 0 <= u(1,0,2)n <= 440
 0 <= y(0,2,2) <= 1
 0 <= y(2,0,2) <= 1
 0 <= v(0,2,2)p <= 23
 0 <= v(0,2,2)n <= 35
 0 <= v(2,0,2)p <= 22
 0 <= v(2,0,2)n <= 36
 0 <= u(0,2,2)p <= 440
 0 <= u(0,2,2)n <= 440
 0 <= u(2,0,2)p <= 440
 0 <= u(2,0,2)n <= 440
 7 <= x(1,2) <= 37
 0 <= y(1,2,2) <= 1
 0 <= y(2,1,2) <= 1
 0 <= v(1,2,2)p <= 24
 0 <= v(1,2,2)n <= 35
 0 <= v(2,1,2)p <= 22
 0 <= v(2,1,2)n <= 37
 0 <= u(1,2,2)p <= 440
 0 <= u(1,2,2)n <= 440
 0 <= u(2,1,2)p <= 440
 0 <= u(2,1,2)n <= 440
 7 <= x(2,2) <= 36
End
